c SAT problem
p wcnf 96 442
1 -60 75 0
1 -75 76 0
1 75 60 0
1 90 91 0
1 90 3165 0
1 90 -3135 0
1 105 3105 0
1 -105 -3150 0
1 105 -3090 0
1 105 -3165 0
1 -105 3135 0
1 3120 196 0
1 -3120 -135 0
1 3120 181 0
1 3120 3135 0
1 3135 3136 0
1 3135 3120 0
1 -3135 181 0
1 3135 120 0
1 -3135 -90 0
1 3150 196 0
1 -3150 136 0
1 -3150 75 0
1 -3150 -3151 0
1 -3150 -181 0
1 3165 -196 0
1 -3165 151 0
1 -120 3105 0
1 -120 -135 0
1 120 -3120 0
1 -120 -3090 0
1 120 -121 0
1 -135 3105 0
1 -135 136 0
1 135 -3090 0
1 135 -3135 0
1 150 3105 0
1 150 165 0
1 150 3000 0
1 150 3135 0
1 165 -3105 0
1 -165 -3075 0
1 165 166 0
1 165 3015 0
1 -165 -3120 0
1 165 3000 0
1 -165 -3135 0
1 3060 -225 0
1 3060 -195 0
1 3060 -3075 0
1 -3060 -165 0
1 -3060 105 0
1 3060 -3061 0
1 3075 -3076 0
1 -3075 -165 0
1 -3075 -240 0
1 3075 -210 0
1 -3075 -3060 0
1 -3075 -150 0
1 -3075 -120 0
1 -3090 -3105 0
1 -3090 -226 0
1 -3090 -165 0
1 -3090 -240 0
1 3090 211 0
1 -3090 -150 0
1 3090 120 0
1 -3090 255 0
1 3105 196 0
1 3105 165 0
1 3105 240 0
1 3105 181 0
1 3105 -255 0
1 180 -3075 0
1 180 3045 0
1 -180 -3015 0
1 -180 -181 0
1 180 3000 0
1 -195 196 0
1 -195 180 0
1 195 3000 0
1 210 -3075 0
1 -210 -3045 0
1 210 -3060 0
1 -225 3015 0
1 225 210 0
1 225 -3060 0
1 -225 -3030 0
1 -225 3000 0
1 -3000 -3015 0
1 3000 210 0
1 3000 180 0
1 3015 -3016 0
1 3015 210 0
1 -3015 -180 0
1 -3015 -150 0
1 3015 -3000 0
1 3030 -225 0
1 -3030 -3045 0
1 -3030 -300 0
1 -3030 210 0
1 -3030 -180 0
1 3030 -150 0
1 3030 255 0
1 -3045 165 0
1 -3045 3046 0
1 3045 300 0
1 3045 -240 0
1 -3045 150 0
1 -3045 3030 0
1 3045 -315 0
1 -61 -76 0
1 61 3345 0
1 61 -60 0
1 -76 -3330 0
1 76 -75 0
1 -91 3300 0
1 -91 -3270 0
1 -91 3240 0
1 -106 3270 0
1 106 -3240 0
1 -106 105 0
1 106 3285 0
1 106 -91 0
1 -3300 3301 0
1 -3300 -136 0
1 3300 151 0
1 3300 91 0
1 -3315 -106 0
1 -3315 -3316 0
1 -3315 91 0
1 3315 61 0
1 -3330 -3345 0
1 3330 -61 0
1 3345 3330 0
1 3345 -3346 0
1 121 -136 0
1 -121 3315 0
1 121 120 0
1 121 3165 0
1 136 3300 0
1 -136 -3285 0
1 -136 -121 0
1 151 166 0
1 151 -3270 0
1 -151 3150 0
1 -151 3315 0
1 -151 3225 0
1 166 -165 0
1 -166 3270 0
1 166 3180 0
1 -166 -151 0
1 -166 -3165 0
1 -3240 -196 0
1 -3240 136 0
1 -3240 -106 0
1 -3240 -241 0
1 -3240 -181 0
1 3240 -151 0
1 -3255 256 0
1 -3255 -226 0
1 3255 -196 0
1 -3255 -136 0
1 3255 -3240 0
1 -3255 -241 0
1 -3255 -211 0
1 -3255 3256 0
1 -3255 121 0
1 -3270 -256 0
1 -3270 166 0
1 -3270 3271 0
1 -3270 136 0
1 -3270 106 0
1 -3270 -151 0
1 -3285 -166 0
1 3285 -241 0
1 3285 151 0
1 3285 -121 0
1 -3285 91 0
1 -181 -3105 0
1 -181 -3240 0
1 -181 -3210 0
1 -181 3120 0
1 -181 180 0
1 -181 -3255 0
1 181 3195 0
1 -181 3135 0
1 196 3105 0
1 196 -195 0
1 -196 3240 0
1 -196 3180 0
1 196 3150 0
1 -196 -3120 0
1 -196 -3090 0
1 196 -3165 0
1 211 3240 0
1 -211 -3210 0
1 -211 -3151 0
1 211 -3225 0
1 211 -3195 0
1 -226 3151 0
1 -226 3255 0
1 226 3225 0
1 3180 226 0
1 3180 -270 0
1 -3180 181 0
1 -3180 -151 0
1 3180 -3195 0
1 -3180 -285 0
1 3195 -301 0
1 3195 270 0
1 -3195 -240 0
1 -3195 -316 0
1 -3195 -255 0
1 3210 256 0
1 3210 -3211 0
1 3210 -301 0
1 3210 -211 0
1 -3210 -151 0
1 -3225 -196 0
1 -3225 -166 0
1 -3225 3210 0
1 -3225 -241 0
1 3225 211 0
1 3225 -181 0
1 3225 151 0
1 240 3045 0
1 -240 -3090 0
1 240 -3060 0
1 255 -256 0
1 255 -3136 0
1 255 -3045 0
1 -255 -3121 0
1 255 -3090 0
1 255 -3060 0
1 255 3030 0
1 -270 -3076 0
1 -270 3180 0
1 270 -3030 0
1 270 3195 0
1 -270 285 0
1 -285 -3136 0
1 285 -3106 0
1 -285 3076 0
1 285 3180 0
1 285 270 0
1 -285 -3151 0
1 285 3121 0
1 -285 -3091 0
1 -285 3195 0
1 285 -286 0
1 3121 -300 0
1 -3121 -270 0
1 -3121 -240 0
1 -3121 -211 0
1 3121 376 0
1 3136 -226 0
1 3136 361 0
1 -3136 -270 0
1 -3136 -3121 0
1 -3136 -345 0
1 3136 315 0
1 3151 -361 0
1 -3151 270 0
1 3151 3150 0
1 -3151 240 0
1 3151 -211 0
1 3151 -3166 0
1 -3166 240 0
1 3166 211 0
1 -3166 376 0
1 -3166 -346 0
1 -3166 -316 0
1 300 3136 0
1 -300 -3076 0
1 300 301 0
1 300 315 0
1 315 -3136 0
1 -315 -3106 0
1 315 -300 0
1 315 -3121 0
1 -315 3061 0
1 -315 -3000 0
1 -315 316 0
1 -330 -3106 0
1 330 -331 0
1 -330 3121 0
1 -330 3091 0
1 330 -3031 0
1 -345 -3136 0
1 -345 -3106 0
1 345 3046 0
1 -345 330 0
1 345 -3121 0
1 345 3061 0
1 -3061 -390 0
1 3061 360 0
1 3061 270 0
1 -3061 375 0
1 -3061 315 0
1 -3061 -285 0
1 3076 390 0
1 -3076 360 0
1 -3076 -270 0
1 -3076 405 0
1 -3076 3061 0
1 3076 375 0
1 3091 391 0
1 -3091 -330 0
1 3091 -345 0
1 3106 3105 0
1 -3106 361 0
1 -3106 -300 0
1 3106 3091 0
1 3106 -376 0
1 -3106 345 0
1 3106 285 0
1 -360 3016 0
1 360 -3031 0
1 360 -3061 0
1 -360 -3001 0
1 375 -3076 0
1 375 -3046 0
1 375 360 0
1 -375 -3061 0
1 375 -3001 0
1 390 -3016 0
1 -390 -405 0
1 -390 -3061 0
1 390 -3001 0
1 405 3076 0
1 -405 -390 0
1 405 -3016 0
1 405 3031 0
1 405 3001 0
1 3001 405 0
1 -3001 -375 0
1 -3001 -345 0
1 -3016 -390 0
1 3016 360 0
1 3016 -405 0
1 -3016 -375 0
1 3031 330 0
1 3031 -345 0
1 -3046 -3045 0
1 3046 -360 0
1 3046 375 0
1 241 -3301 0
1 -241 3270 0
1 -241 -3240 0
1 241 -3255 0
1 256 3210 0
1 256 -241 0
1 256 -3346 0
1 -256 -3255 0
1 -256 255 0
1 271 3301 0
1 271 -3271 0
1 271 3210 0
1 271 -270 0
1 -271 -3316 0
1 286 3331 0
1 286 -3210 0
1 286 271 0
1 -286 3346 0
1 286 3225 0
1 -286 285 0
1 -3301 -271 0
1 -3301 -346 0
1 -3301 -286 0
1 3316 3301 0
1 3331 -3330 0
1 -3346 -256 0
1 3346 241 0
1 301 -3301 0
1 301 3271 0
1 -301 3210 0
1 -301 -300 0
1 301 -3195 0
1 301 3166 0
1 316 -3301 0
1 316 -3210 0
1 -316 -3195 0
1 -316 301 0
1 -316 3151 0
1 -316 3286 0
1 -316 3225 0
1 -316 3166 0
1 -331 -3301 0
1 -331 3226 0
1 331 -3271 0
1 331 3256 0
1 346 3301 0
1 -346 3271 0
1 346 -3211 0
1 -346 -3181 0
1 3241 3240 0
1 -3241 286 0
1 -3256 -391 0
1 3256 -3241 0
1 3256 331 0
1 -3256 406 0
1 3256 -346 0
1 3256 -286 0
1 3271 -331 0
1 3271 -3286 0
1 3271 316 0
1 3271 -286 0
1 3286 -331 0
1 -3286 -271 0
1 -3286 -3285 0
1 -361 -3256 0
1 361 -3211 0
1 361 -3181 0
1 361 3121 0
1 -361 3166 0
1 376 -3241 0
1 376 3211 0
1 376 3151 0
1 -376 -3121 0
1 -376 -3091 0
1 376 375 0
1 376 3226 0
1 391 3241 0
1 -391 3181 0
1 -391 -3256 0
1 391 3226 0
1 406 3106 0
1 -406 -3091 0
1 406 -3226 0
1 3181 -331 0
1 3181 -3180 0
1 -3181 406 0
1 -3181 3196 0
1 -3196 391 0
1 -3196 -406 0
1 -3196 -376 0
1 3196 -346 0
1 -3211 -361 0
1 3211 -331 0
1 3226 406 0
1 -3226 376 0
